30
337
8
71
48
18
56
61
32
11
70
0 1
0 2
0 3
0 4
0 6
0 7
0 8
0 11
0 12
0 13
0 14
0 16
0 17
0 18
0 19
0 22
0 24
0 25
0 26
0 27
0 28
0 29
1 2
1 3
1 4
1 6
1 8
1 9
1 11
1 14
1 15
1 18
1 19
1 21
1 22
1 24
1 25
1 26
1 27
1 29
2 3
2 4
2 6
2 7
2 8
2 9
2 10
2 12
2 13
2 15
2 16
2 18
2 19
2 20
2 21
2 22
2 23
2 24
2 25
2 26
2 27
2 28
2 29
3 4
3 5
3 6
3 7
3 8
3 9
3 10
3 11
3 12
3 13
3 14
3 16
3 19
3 20
3 21
3 22
3 23
3 24
3 25
3 26
3 28
3 29
4 5
4 6
4 8
4 9
4 11
4 12
4 13
4 14
4 16
4 18
4 19
4 21
4 22
4 24
4 25
4 26
4 27
4 28
4 29
5 6
5 9
5 10
5 11
5 12
5 13
5 15
5 16
5 17
5 18
5 19
5 20
5 21
5 22
5 23
5 24
5 25
5 26
5 27
5 28
6 7
6 8
6 9
6 11
6 12
6 13
6 14
6 16
6 17
6 18
6 19
6 20
6 21
6 23
6 24
6 25
6 26
6 27
6 29
7 9
7 10
7 12
7 13
7 14
7 15
7 16
7 17
7 19
7 20
7 21
7 23
7 24
7 26
7 27
7 28
8 9
8 10
8 12
8 13
8 14
8 15
8 16
8 17
8 18
8 19
8 20
8 24
8 26
8 27
8 28
8 29
9 10
9 11
9 12
9 13
9 15
9 16
9 17
9 18
9 19
9 20
9 22
9 23
9 24
9 26
9 27
9 28
9 29
10 12
10 14
10 15
10 17
10 18
10 19
10 20
10 21
10 23
10 24
10 25
10 26
10 27
10 28
10 29
11 13
11 14
11 15
11 16
11 17
11 18
11 19
11 20
11 21
11 23
11 24
11 25
11 26
11 28
11 29
12 15
12 17
12 18
12 19
12 20
12 21
12 22
12 23
12 24
12 25
12 27
12 28
13 14
13 15
13 17
13 18
13 19
13 20
13 21
13 24
13 25
13 26
13 28
13 29
14 16
14 17
14 18
14 20
14 21
14 22
14 23
14 24
14 26
14 28
14 29
15 17
15 19
15 21
15 22
15 23
15 24
15 25
15 27
15 28
15 29
16 17
16 18
16 20
16 22
16 23
16 24
16 26
16 27
16 29
17 18
17 21
17 22
17 24
17 26
17 27
17 28
17 29
18 19
18 20
18 23
18 24
18 26
18 27
18 28
19 20
19 21
19 22
19 24
19 25
19 26
19 27
19 28
19 29
20 21
20 22
20 23
20 24
20 25
20 26
20 27
20 28
21 22
21 23
21 24
21 25
21 28
21 29
22 24
22 25
22 26
22 27
22 28
22 29
23 24
23 26
23 27
23 28
23 29
24 26
24 27
24 29
25 27
25 28
25 29
26 27
26 28
26 29
27 28
27 29
28 29
15 2 23 12
4 10 14 18
22 7 25 21
17 29 27 26
9 20 8 13
19 6 16 11
1 3 0 5
28 24
